1
26250.00 23400.00 29400.00  43700.00
20
251 444 563  190 89
400 202 165  150 84
488 712 300  91 274
700 49 600  154 43
172 339 299  12 184
328 258 260  164 226
427 692 374  95 2
219 79 342  13 245
133 794 307  206 285
788 29 371  153 279
352 784 419  44 300
468 108 126  52 256
433 454 617  158 28
51 490 662  282 67
270 748 92  171 124
322 249 338  51 204
433 539 506  264 150
26 72 268  242 27
457 397 94  211 147
336 696 314  233 64
